WARNING: for repeatability, setting FPU to use double precision
============================[ Problem Statistics ]=============================
|                                                                             |
|  Number of variables:            50                                         |
|  Number of clauses:             218                                         |
|  Parse time:                   0.00 s                                       |
|                                                                             |
============================[ Search Statistics ]==============================
| Conflicts |          ORIGINAL         |          LEARNT          | Progress |
|           |    Vars  Clauses Literals |    Limit  Clauses Lit/Cl |          |
===============================================================================
===============================================================================
restarts              : 1
conflicts             : 60             (40486 /sec)
decisions             : 64             (0.00 % random) (43185 /sec)
propagations          : 916            (618084 /sec)
conflict literals     : 199            (21.03 % deleted)
Memory used           : 20.00 MB
CPU time              : 0.001482 s

UNSATISFIABLE
